
******************************************************************************
This program contains Ipopt, a library for large-scale nonlinear optimization.
 Ipopt is released as open source code under the Eclipse Public License (EPL).
         For more information visit http://projects.coin-or.org/Ipopt
******************************************************************************

This is Ipopt version 3.12.6, running with linear solver ma57.

Number of nonzeros in equality constraint Jacobian...:    14997
Number of nonzeros in inequality constraint Jacobian.:        0
Number of nonzeros in Lagrangian Hessian.............:    69972

Reallocating memory for MA57: lfact (323674)
Total number of variables............................:     9999
                     variables with only lower bounds:        0
                variables with lower and upper bounds:        0
                     variables with only upper bounds:        0
Total number of equality constraints.................:     4999
Total number of inequality constraints...............:        0
        inequality constraints with only lower bounds:        0
   inequality constraints with lower and upper bounds:        0
        inequality constraints with only upper bounds:        0

iter    objective    inf_pr   inf_du lg(mu)  ||d||  lg(rg) alpha_du alpha_pr  ls
   0  3.1102863e+09 9.00e+00 1.00e+02  -1.0 0.00e+00    -  0.00e+00 0.00e+00   0
   1  5.9033242e+08 3.04e-02 2.23e+02  -1.0 2.25e+00    -  1.00e+00 1.00e+00f  1
   2  5.8531174e+08 1.18e-05 7.24e+01  -1.0 7.25e-03   4.0 1.00e+00 1.00e+00f  1
   3  1.7655215e+08 3.99e-04 1.40e+01  -1.0 5.40e-01    -  1.00e+00 1.00e+00f  1
   4  5.5903017e+07 2.57e-04 4.81e+00  -1.0 4.66e-01    -  1.00e+00 1.00e+00f  1
   5  1.9051563e+07 3.17e-04 1.69e+00  -1.0 4.13e-01    -  1.00e+00 1.00e+00f  1
   6  7.1822250e+06 4.67e-04 6.05e-01  -1.0 3.78e-01    -  1.00e+00 1.00e+00f  1
   7  3.0639391e+06 7.89e-04 2.23e-01  -1.7 3.64e-01    -  1.00e+00 1.00e+00f  1
   8  1.5115472e+06 1.37e-03 8.42e-02  -1.7 3.92e-01    -  1.00e+00 1.00e+00f  1
   9  8.8935991e+05 2.15e-03 3.25e-02  -2.5 4.69e-01    -  1.00e+00 1.00e+00f  1
iter    objective    inf_pr   inf_du lg(mu)  ||d||  lg(rg) alpha_du alpha_pr  ls
  10  6.4302236e+05 3.49e-03 1.36e-02  -2.5 4.26e-01    -  1.00e+00 1.00e+00f  1
  11  6.2901928e+05 1.09e-02 9.77e-03  -3.8 4.43e-01    -  1.00e+00 1.00e+00f  1
  12  6.2864243e+05 1.88e-02 2.46e-03  -3.8 1.76e-01    -  1.00e+00 1.00e+00h  1
  13  6.2864399e+05 7.88e-04 2.55e-04  -3.8 5.48e-02    -  1.00e+00 1.00e+00h  1
  14  6.2864407e+05 1.20e-05 3.81e-06  -5.7 6.99e-03    -  1.00e+00 1.00e+00h  1
  15  6.2864408e+05 2.87e-09 8.77e-10  -8.6 1.07e-04    -  1.00e+00 1.00e+00h  1
  16  6.2864408e+05 2.49e-16 9.71e-17  -9.0 2.46e-08    -  1.00e+00 1.00e+00h  1

Number of Iterations....: 16

                                   (scaled)                 (unscaled)
Objective...............:   1.0522132160084119e+02    6.2864407631863584e+05
Dual infeasibility......:   9.7144514654701197e-17    5.8038924768683565e-13
Constraint violation....:   2.4906340746033679e-16    2.4906340746033679e-16
Complementarity.........:   0.0000000000000000e+00    0.0000000000000000e+00
Overall NLP error.......:   2.4906340746033679e-16    5.8038924768683565e-13


Number of objective function evaluations             = 17
Number of objective gradient evaluations             = 17
Number of equality constraint evaluations            = 17
Number of inequality constraint evaluations          = 0
Number of equality constraint Jacobian evaluations   = 17
Number of inequality constraint Jacobian evaluations = 0
Number of Lagrangian Hessian evaluations             = 16
Total CPU secs in IPOPT (w/o function evaluations)   =      0.240
Total CPU secs in NLP function evaluations           =      0.273

EXIT: Optimal Solution Found.

************************ CUTEst statistics ************************


 Package used            :  IPOPT
 Problem                 :  LUKVLE6   
 # variables             =            9999
 # constraints           =            4999
 # objective functions   =        0.3500000E+02
 # objective gradients   =        0.1800000E+02
 # objective Hessians    =        0.1700000E+02
 # Hessian-vector prdct  =        0.0000000E+00
 # constraints functions =        0.3600000E+02
 # constraints gradients =        0.1900000E+02
 # constraints Hessians  =        0.1700000E+02
 Exit code               =               0
 Final f                 =   0.6286441E+06
 Set up time             =            0.33 seconds
 Solve time              =            0.52 seconds


******************************************************************

System Time =       0.5159999728 s.
